NAME : A065-03f.1974.tour
COMMENT : Cost = 0_1974
COMMENT : Found by LKH [Keld Helsgaun] Tue Sep 12 09:35:35 2017
TYPE : TOUR
DIMENSION : 67
TOUR_SECTION
1
29
51
55
28
27
22
49
36
21
20
47
46
13
45
12
61
15
48
6
7
58
59
65
5
40
8
37
9
41
42
10
43
44
11
16
14
17
18
19
62
2
38
67
35
33
53
31
54
32
63
52
25
24
50
23
60
26
64
30
56
34
57
66
39
3
4
-1
EOF
